; DUP2 SWAP1 DUP5 SWAP1 DUP5 SWAP1 => DUP4 DUP4 DUP4 SWAP3
(set-option :produce-proofs true)
; 
(set-info :status unknown)
(declare-fun storage_t ((_ BitVec 256) (_ BitVec 256) (_ BitVec 256) (_ BitVec 256) Int (_ BitVec 256)) (_ BitVec 256))
(declare-fun storage_s ((_ BitVec 256) (_ BitVec 256) (_ BitVec 256) (_ BitVec 256) Int (_ BitVec 256)) (_ BitVec 256))
(declare-fun exc_halt_t (Int) Bool)
(declare-fun exc_halt_s (Int) Bool)
(declare-fun sc_t (Int) (_ BitVec 6))
(declare-fun stack_t ((_ BitVec 256) (_ BitVec 256) (_ BitVec 256) (_ BitVec 256) Int (_ BitVec 6)) (_ BitVec 256))
(declare-fun stack_s ((_ BitVec 256) (_ BitVec 256) (_ BitVec 256) (_ BitVec 256) Int (_ BitVec 6)) (_ BitVec 256))
(declare-fun sc_s (Int) (_ BitVec 6))
(declare-fun used_gas_t ((_ BitVec 256) (_ BitVec 256) (_ BitVec 256) (_ BitVec 256) Int) Int)
(declare-fun used_gas_s ((_ BitVec 256) (_ BitVec 256) (_ BitVec 256) (_ BitVec 256) Int) Int)
(assert
 (exists ((x_0 (_ BitVec 256)) (x_1 (_ BitVec 256)) (x_2 (_ BitVec 256)) (x_3 (_ BitVec 256)) )(let (($x2922 (forall ((w (_ BitVec 256)) )(let ((?x6184 (storage_t x_0 x_1 x_2 x_3 4 w)))
 (let ((?x2000 (storage_s x_0 x_1 x_2 x_3 6 w)))
 (= ?x2000 ?x6184))))
 ))
 (let (($x3723 (exc_halt_t 4)))
 (let (($x772 (exc_halt_s 6)))
 (let (($x10342 (= $x772 $x3723)))
 (let (($x9653 (forall ((n (_ BitVec 6)) )(let ((?x1098 (sc_t 4)))
 (let (($x3316 (bvsle ?x1098 n)))
 (let ((?x9790 (stack_t x_0 x_1 x_2 x_3 4 n)))
 (let ((?x11385 (stack_s x_0 x_1 x_2 x_3 6 n)))
 (let (($x802 (= ?x11385 ?x9790)))
 (or $x802 $x3316)))))))
 ))
 (let ((?x1098 (sc_t 4)))
 (let ((?x926 (sc_s 6)))
 (let (($x7104 (= ?x926 ?x1098)))
 (let (($x4631 (not (and $x7104 $x9653 $x10342 $x2922))))
 (let ((?x1526 (used_gas_t x_0 x_1 x_2 x_3 0)))
 (let ((?x6531 (used_gas_s x_0 x_1 x_2 x_3 0)))
 (let (($x697 (= ?x6531 ?x1526)))
 (let (($x10092 (forall ((w (_ BitVec 256)) )(let ((?x3182 (storage_t x_0 x_1 x_2 x_3 0 w)))
 (let ((?x3924 (storage_s x_0 x_1 x_2 x_3 0 w)))
 (= ?x3924 ?x3182))))
 ))
 (let (($x56 (exc_halt_t 0)))
 (let (($x57 (exc_halt_s 0)))
 (let (($x58 (= $x57 $x56)))
 (let (($x255 (forall ((n (_ BitVec 6)) )(let ((?x63 (sc_t 0)))
 (let (($x6686 (bvsle ?x63 n)))
 (let ((?x8923 (stack_t x_0 x_1 x_2 x_3 0 n)))
 (let ((?x10114 (stack_s x_0 x_1 x_2 x_3 0 n)))
 (let (($x3998 (= ?x10114 ?x8923)))
 (or $x3998 $x6686)))))))
 ))
 (let ((?x63 (sc_t 0)))
 (let ((?x72 (sc_s 0)))
 (let (($x73 (= ?x72 ?x63)))
 (let (($x7110 (= $x3723 (or (exc_halt_t 3) (not (bvsle (_ bv0 6) (bvadd (_ bv60 6) (sc_t 3))))))))
 (let (($x1027 (forall ((w (_ BitVec 256)) )(let ((?x3255 (storage_t x_0 x_1 x_2 x_3 3 w)))
 (let ((?x6184 (storage_t x_0 x_1 x_2 x_3 4 w)))
 (= ?x6184 ?x3255))))
 ))
 (let (($x2983 (forall ((n (_ BitVec 6)) )(let ((?x6221 (stack_t x_0 x_1 x_2 x_3 3 n)))
 (let ((?x9790 (stack_t x_0 x_1 x_2 x_3 4 n)))
 (let (($x7518 (= ?x9790 ?x6221)))
 (or (bvsle (bvadd (_ bv60 6) (sc_t 3)) n) $x7518)))))
 ))
 (let ((?x6438 (sc_t 3)))
 (let (($x8206 (= ?x1098 ?x6438)))
 (let (($x11159 (= (used_gas_t x_0 x_1 x_2 x_3 4) (+ 3 (used_gas_t x_0 x_1 x_2 x_3 3)))))
 (let (($x5890 (= (stack_t x_0 x_1 x_2 x_3 4 (bvadd (_ bv62 6) ?x1098)) (stack_t x_0 x_1 x_2 x_3 3 (bvadd (_ bv62 6) ?x6438)))))
 (let ((?x7212 (bvadd (_ bv61 6) ?x6438)))
 (let ((?x1233 (stack_t x_0 x_1 x_2 x_3 3 ?x7212)))
 (let ((?x11681 (stack_t x_0 x_1 x_2 x_3 4 (bvadd (_ bv61 6) ?x1098))))
 (let ((?x7132 (bvadd (_ bv63 6) ?x6438)))
 (let ((?x8450 (stack_t x_0 x_1 x_2 x_3 3 ?x7132)))
 (let ((?x1368 (bvadd (_ bv63 6) ?x1098)))
 (let ((?x2945 (stack_t x_0 x_1 x_2 x_3 4 ?x1368)))
 (let (($x10658 (not (= ((_ extract 6 6) (bvadd (_ bv1 7) (concat (_ bv0 1) (sc_t 2)))) (_ bv0 1)))))
 (let (($x6683 (not (bvsle (_ bv0 6) (bvadd (_ bv60 6) (sc_t 2))))))
 (let (($x5252 (exc_halt_t 2)))
 (let (($x6783 (exc_halt_t 3)))
 (let (($x1371 (= $x6783 (or $x5252 $x6683 $x10658))))
 (let (($x3728 (forall ((w (_ BitVec 256)) )(let ((?x6920 (storage_t x_0 x_1 x_2 x_3 2 w)))
 (let ((?x3255 (storage_t x_0 x_1 x_2 x_3 3 w)))
 (= ?x3255 ?x6920))))
 ))
 (let (($x738 (forall ((n (_ BitVec 6)) )(let ((?x2895 (stack_t x_0 x_1 x_2 x_3 2 n)))
 (let ((?x6221 (stack_t x_0 x_1 x_2 x_3 3 n)))
 (let (($x11805 (= ?x6221 ?x2895)))
 (let ((?x2714 (sc_t 2)))
 (let ((?x4673 (bvadd (_ bv60 6) ?x2714)))
 (let (($x8588 (bvsle ?x4673 n)))
 (or $x8588 $x11805))))))))
 ))
 (let (($x10750 (= ?x6438 (bvadd (_ bv1 6) (sc_t 2)))))
 (let ((?x7323 (used_gas_t x_0 x_1 x_2 x_3 3)))
 (let (($x988 (= ?x7323 (+ 3 (used_gas_t x_0 x_1 x_2 x_3 2)))))
 (let ((?x2714 (sc_t 2)))
 (let ((?x3527 (bvadd (_ bv63 6) ?x2714)))
 (let ((?x7578 (stack_t x_0 x_1 x_2 x_3 2 ?x3527)))
 (let (($x1024 (= (stack_t x_0 x_1 x_2 x_3 3 ?x3527) ?x7578)))
 (let (($x1787 (= (stack_t x_0 x_1 x_2 x_3 3 (bvadd (_ bv62 6) ?x2714)) (stack_t x_0 x_1 x_2 x_3 2 (bvadd (_ bv62 6) ?x2714)))))
 (let ((?x1348 (bvadd (_ bv61 6) ?x2714)))
 (let ((?x8435 (stack_t x_0 x_1 x_2 x_3 2 ?x1348)))
 (let (($x10787 (= (stack_t x_0 x_1 x_2 x_3 3 ?x1348) ?x8435)))
 (let ((?x4673 (bvadd (_ bv60 6) ?x2714)))
 (let ((?x9005 (stack_t x_0 x_1 x_2 x_3 2 ?x4673)))
 (let (($x11639 (not (= ((_ extract 6 6) (bvadd (_ bv1 7) (concat (_ bv0 1) (sc_t 1)))) (_ bv0 1)))))
 (let (($x3508 (exc_halt_t 1)))
 (let (($x6843 (forall ((w (_ BitVec 256)) )(let ((?x9998 (storage_t x_0 x_1 x_2 x_3 1 w)))
 (let ((?x6920 (storage_t x_0 x_1 x_2 x_3 2 w)))
 (= ?x6920 ?x9998))))
 ))
 (let (($x4413 (forall ((n (_ BitVec 6)) )(let ((?x8118 (stack_t x_0 x_1 x_2 x_3 1 n)))
 (let ((?x2895 (stack_t x_0 x_1 x_2 x_3 2 n)))
 (let (($x5501 (= ?x2895 ?x8118)))
 (or $x5501 (bvsle (bvadd (_ bv60 6) (sc_t 1)) n))))))
 ))
 (let (($x5193 (= ?x2714 (bvadd (_ bv1 6) (sc_t 1)))))
 (let ((?x2957 (used_gas_t x_0 x_1 x_2 x_3 2)))
 (let (($x753 (= ?x2957 (+ 3 (used_gas_t x_0 x_1 x_2 x_3 1)))))
 (let ((?x8347 (sc_t 1)))
 (let ((?x1126 (bvadd (_ bv63 6) ?x8347)))
 (let ((?x5724 (stack_t x_0 x_1 x_2 x_3 1 ?x1126)))
 (let (($x10608 (= (stack_t x_0 x_1 x_2 x_3 2 ?x1126) ?x5724)))
 (let ((?x10952 (bvadd (_ bv62 6) ?x8347)))
 (let ((?x5911 (stack_t x_0 x_1 x_2 x_3 1 ?x10952)))
 (let (($x9819 (= (stack_t x_0 x_1 x_2 x_3 2 ?x10952) ?x5911)))
 (let ((?x7573 (bvadd (_ bv61 6) ?x8347)))
 (let ((?x3673 (stack_t x_0 x_1 x_2 x_3 1 ?x7573)))
 (let (($x4346 (= (stack_t x_0 x_1 x_2 x_3 2 ?x7573) ?x3673)))
 (let ((?x4989 (bvadd (_ bv60 6) ?x8347)))
 (let ((?x2485 (stack_t x_0 x_1 x_2 x_3 1 ?x4989)))
 (let (($x6076 (not (= ((_ extract 6 6) (bvadd (_ bv1 7) (concat (_ bv0 1) ?x63))) (_ bv0 1)))))
 (let (($x8773 (= $x3508 (or $x56 $x6076 (not (bvsle (_ bv0 6) (bvadd (_ bv60 6) ?x63)))))))
 (let (($x3553 (forall ((w (_ BitVec 256)) )(let ((?x3182 (storage_t x_0 x_1 x_2 x_3 0 w)))
 (let ((?x9998 (storage_t x_0 x_1 x_2 x_3 1 w)))
 (= ?x9998 ?x3182))))
 ))
 (let (($x232 (forall ((n (_ BitVec 6)) )(let ((?x8923 (stack_t x_0 x_1 x_2 x_3 0 n)))
 (let ((?x8118 (stack_t x_0 x_1 x_2 x_3 1 n)))
 (let (($x4237 (= ?x8118 ?x8923)))
 (or $x4237 (bvsle (bvadd (_ bv60 6) (sc_t 0)) n))))))
 ))
 (let (($x7135 (= ?x8347 (bvadd (_ bv1 6) ?x63))))
 (let ((?x1671 (used_gas_t x_0 x_1 x_2 x_3 1)))
 (let (($x9018 (= ?x1671 (+ 3 ?x1526))))
 (let ((?x8372 (bvadd (_ bv63 6) ?x63)))
 (let ((?x7258 (stack_t x_0 x_1 x_2 x_3 0 ?x8372)))
 (let (($x7958 (= (stack_t x_0 x_1 x_2 x_3 1 ?x8372) ?x7258)))
 (let ((?x11351 (bvadd (_ bv62 6) ?x63)))
 (let ((?x7190 (stack_t x_0 x_1 x_2 x_3 0 ?x11351)))
 (let (($x2995 (= (stack_t x_0 x_1 x_2 x_3 1 ?x11351) ?x7190)))
 (let (($x8750 (= (stack_t x_0 x_1 x_2 x_3 1 (bvadd (_ bv61 6) ?x63)) (stack_t x_0 x_1 x_2 x_3 0 (bvadd (_ bv61 6) ?x63)))))
 (let ((?x6829 (bvadd (_ bv60 6) ?x63)))
 (let ((?x10622 (stack_t x_0 x_1 x_2 x_3 0 ?x6829)))
 (let (($x3387 (= (stack_t x_0 x_1 x_2 x_3 1 ?x6829) ?x10622)))
 (let (($x8439 (= ?x5724 ?x10622)))
 (let (($x10480 (= $x772 (or (exc_halt_s 5) (not (bvsle (_ bv0 6) (bvadd (_ bv62 6) (sc_s 5))))))))
 (let (($x11662 (forall ((w (_ BitVec 256)) )(let ((?x6193 (storage_s x_0 x_1 x_2 x_3 5 w)))
 (let ((?x2000 (storage_s x_0 x_1 x_2 x_3 6 w)))
 (= ?x2000 ?x6193))))
 ))
 (let (($x7791 (forall ((n (_ BitVec 6)) )(let ((?x263 (stack_s x_0 x_1 x_2 x_3 5 n)))
 (let ((?x11385 (stack_s x_0 x_1 x_2 x_3 6 n)))
 (or (bvsle (bvadd (_ bv62 6) (sc_s 5)) n) (= ?x11385 ?x263)))))
 ))
 (let ((?x4319 (sc_s 5)))
 (let (($x2469 (= ?x926 ?x4319)))
 (let (($x2613 (= (used_gas_s x_0 x_1 x_2 x_3 6) (+ 3 (used_gas_s x_0 x_1 x_2 x_3 5)))))
 (let ((?x6091 (bvadd (_ bv63 6) ?x4319)))
 (let ((?x10576 (stack_s x_0 x_1 x_2 x_3 5 ?x6091)))
 (let (($x3061 (= (stack_s x_0 x_1 x_2 x_3 6 (bvadd (_ bv62 6) ?x926)) ?x10576)))
 (let ((?x9553 (bvadd (_ bv62 6) ?x4319)))
 (let ((?x7251 (stack_s x_0 x_1 x_2 x_3 5 ?x9553)))
 (let (($x4233 (= (stack_s x_0 x_1 x_2 x_3 6 (bvadd (_ bv63 6) ?x926)) ?x7251)))
 (let (($x7172 (exc_halt_s 4)))
 (let (($x5561 (or $x7172 (not (= ((_ extract 6 6) (bvadd (_ bv1 7) (concat (_ bv0 1) (sc_s 4)))) (_ bv0 1))) (not (bvsle (_ bv0 6) (bvadd (_ bv59 6) (sc_s 4)))))))
 (let (($x11317 (exc_halt_s 5)))
 (let (($x3115 (forall ((w (_ BitVec 256)) )(let ((?x2299 (storage_s x_0 x_1 x_2 x_3 4 w)))
 (let ((?x6193 (storage_s x_0 x_1 x_2 x_3 5 w)))
 (= ?x6193 ?x2299))))
 ))
 (let (($x11823 (forall ((n (_ BitVec 6)) )(let ((?x6341 (stack_s x_0 x_1 x_2 x_3 4 n)))
 (let ((?x263 (stack_s x_0 x_1 x_2 x_3 5 n)))
 (let (($x10721 (= ?x263 ?x6341)))
 (or (bvsle (bvadd (_ bv59 6) (sc_s 4)) n) $x10721)))))
 ))
 (let ((?x8400 (used_gas_s x_0 x_1 x_2 x_3 5)))
 (let (($x3051 (= ?x8400 (+ 3 (used_gas_s x_0 x_1 x_2 x_3 4)))))
 (let ((?x4305 (sc_s 4)))
 (let ((?x7978 (bvadd (_ bv63 6) ?x4305)))
 (let ((?x9537 (stack_s x_0 x_1 x_2 x_3 4 ?x7978)))
 (let ((?x9107 (bvadd (_ bv62 6) ?x4305)))
 (let ((?x9716 (stack_s x_0 x_1 x_2 x_3 4 ?x9107)))
 (let ((?x10694 (bvadd (_ bv61 6) ?x4305)))
 (let ((?x10607 (stack_s x_0 x_1 x_2 x_3 4 ?x10694)))
 (let (($x10810 (= (stack_s x_0 x_1 x_2 x_3 5 (bvadd (_ bv60 6) ?x4305)) (stack_s x_0 x_1 x_2 x_3 4 (bvadd (_ bv60 6) ?x4305)))))
 (let ((?x7694 (bvadd (_ bv59 6) ?x4305)))
 (let ((?x305 (stack_s x_0 x_1 x_2 x_3 4 ?x7694)))
 (let (($x1015 (= $x7172 (or (exc_halt_s 3) (not (bvsle (_ bv0 6) (bvadd (_ bv62 6) (sc_s 3))))))))
 (let (($x4815 (forall ((w (_ BitVec 256)) )(let ((?x9195 (storage_s x_0 x_1 x_2 x_3 3 w)))
 (let ((?x2299 (storage_s x_0 x_1 x_2 x_3 4 w)))
 (= ?x2299 ?x9195))))
 ))
 (let (($x3583 (forall ((n (_ BitVec 6)) )(let ((?x8221 (stack_s x_0 x_1 x_2 x_3 3 n)))
 (let ((?x6341 (stack_s x_0 x_1 x_2 x_3 4 n)))
 (let (($x2425 (= ?x6341 ?x8221)))
 (or $x2425 (bvsle (bvadd (_ bv62 6) (sc_s 3)) n))))))
 ))
 (let ((?x275 (sc_s 3)))
 (let (($x4885 (= ?x4305 ?x275)))
 (let ((?x4918 (used_gas_s x_0 x_1 x_2 x_3 4)))
 (let (($x10140 (= ?x4918 (+ 3 (used_gas_s x_0 x_1 x_2 x_3 3)))))
 (let (($x6537 (not (= ((_ extract 6 6) (bvadd (_ bv1 7) (concat (_ bv0 1) (sc_s 2)))) (_ bv0 1)))))
 (let (($x247 (exc_halt_s 2)))
 (let (($x292 (exc_halt_s 3)))
 (let (($x11167 (forall ((w (_ BitVec 256)) )(let ((?x3403 (storage_s x_0 x_1 x_2 x_3 2 w)))
 (let ((?x9195 (storage_s x_0 x_1 x_2 x_3 3 w)))
 (= ?x9195 ?x3403))))
 ))
 (let (($x10150 (forall ((n (_ BitVec 6)) )(let ((?x7153 (stack_s x_0 x_1 x_2 x_3 2 n)))
 (let ((?x8221 (stack_s x_0 x_1 x_2 x_3 3 n)))
 (let (($x4036 (= ?x8221 ?x7153)))
 (or $x4036 (bvsle (bvadd (_ bv59 6) (sc_s 2)) n))))))
 ))
 (let (($x7666 (= ?x275 (bvadd (_ bv1 6) (sc_s 2)))))
 (let ((?x1906 (used_gas_s x_0 x_1 x_2 x_3 3)))
 (let (($x2081 (= ?x1906 (+ 3 (used_gas_s x_0 x_1 x_2 x_3 2)))))
 (let ((?x218 (sc_s 2)))
 (let ((?x5211 (bvadd (_ bv63 6) ?x218)))
 (let ((?x3437 (stack_s x_0 x_1 x_2 x_3 2 ?x5211)))
 (let ((?x5834 (bvadd (_ bv62 6) ?x218)))
 (let ((?x8612 (stack_s x_0 x_1 x_2 x_3 2 ?x5834)))
 (let ((?x9995 (bvadd (_ bv61 6) ?x218)))
 (let ((?x8559 (stack_s x_0 x_1 x_2 x_3 2 ?x9995)))
 (let (($x10268 (= (stack_s x_0 x_1 x_2 x_3 3 (bvadd (_ bv60 6) ?x218)) (stack_s x_0 x_1 x_2 x_3 2 (bvadd (_ bv60 6) ?x218)))))
 (let ((?x10940 (bvadd (_ bv59 6) ?x218)))
 (let ((?x1659 (stack_s x_0 x_1 x_2 x_3 2 ?x10940)))
 (let (($x11245 (= $x247 (or (exc_halt_s 1) (not (bvsle (_ bv0 6) (bvadd (_ bv62 6) (sc_s 1))))))))
 (let (($x9460 (forall ((w (_ BitVec 256)) )(let ((?x238 (storage_s x_0 x_1 x_2 x_3 1 w)))
 (let ((?x3403 (storage_s x_0 x_1 x_2 x_3 2 w)))
 (= ?x3403 ?x238))))
 ))
 (let (($x5595 (forall ((n (_ BitVec 6)) )(let ((?x6411 (stack_s x_0 x_1 x_2 x_3 1 n)))
 (let ((?x7153 (stack_s x_0 x_1 x_2 x_3 2 n)))
 (let (($x6234 (= ?x7153 ?x6411)))
 (or $x6234 (bvsle (bvadd (_ bv62 6) (sc_s 1)) n))))))
 ))
 (let ((?x154 (sc_s 1)))
 (let (($x564 (= ?x218 ?x154)))
 (let ((?x4675 (used_gas_s x_0 x_1 x_2 x_3 2)))
 (let (($x528 (= ?x4675 (+ 3 (used_gas_s x_0 x_1 x_2 x_3 1)))))
 (let (($x5122 (not (= ((_ extract 6 6) (bvadd (_ bv1 7) (concat (_ bv0 1) ?x72))) (_ bv0 1)))))
 (let (($x189 (exc_halt_s 1)))
 (let (($x7236 (= $x189 (or $x57 $x5122 (not (bvsle (_ bv0 6) (bvadd (_ bv62 6) ?x72)))))))
 (let (($x1271 (forall ((w (_ BitVec 256)) )(let ((?x3924 (storage_s x_0 x_1 x_2 x_3 0 w)))
 (let ((?x238 (storage_s x_0 x_1 x_2 x_3 1 w)))
 (= ?x238 ?x3924))))
 ))
 (let (($x7817 (forall ((n (_ BitVec 6)) )(let ((?x72 (sc_s 0)))
 (let ((?x3221 (bvadd (_ bv62 6) ?x72)))
 (let (($x6350 (bvsle ?x3221 n)))
 (let ((?x10114 (stack_s x_0 x_1 x_2 x_3 0 n)))
 (let ((?x6411 (stack_s x_0 x_1 x_2 x_3 1 n)))
 (let (($x3866 (= ?x6411 ?x10114)))
 (or $x3866 $x6350))))))))
 ))
 (let (($x5483 (= ?x154 (bvadd (_ bv1 6) ?x72))))
 (let ((?x11598 (used_gas_s x_0 x_1 x_2 x_3 1)))
 (let (($x10196 (= ?x11598 (+ 3 ?x6531))))
 (let (($x1886 (= (stack_s x_0 x_1 x_2 x_3 1 (bvadd (_ bv63 6) ?x72)) (stack_s x_0 x_1 x_2 x_3 0 (bvadd (_ bv63 6) ?x72)))))
 (let ((?x3221 (bvadd (_ bv62 6) ?x72)))
 (let ((?x9560 (stack_s x_0 x_1 x_2 x_3 0 ?x3221)))
 (let (($x8193 (= (stack_s x_0 x_1 x_2 x_3 1 ?x3221) ?x9560)))
 (let (($x5027 (forall ((w (_ BitVec 256)) )(let ((?x3924 (storage_s x_0 x_1 x_2 x_3 0 w)))
 (= ?x3924 (_ bv0 256))))
 ))
 (let (($x4808 (= ?x6531 0)))
 (let (($x11124 (not $x57)))
 (let (($x7878 (= (stack_s x_0 x_1 x_2 x_3 0 (_ bv3 6)) x_3)))
 (let (($x3000 (= (stack_s x_0 x_1 x_2 x_3 0 (_ bv2 6)) x_2)))
 (let (($x9760 (= (stack_s x_0 x_1 x_2 x_3 0 (_ bv1 6)) x_1)))
 (let (($x8027 (= (stack_s x_0 x_1 x_2 x_3 0 (_ bv0 6)) x_0)))
 (let (($x289 (= ?x72 (_ bv4 6))))
 (and $x289 $x8027 $x9760 $x3000 $x7878 $x11124 $x4808 $x5027 (= (stack_s x_0 x_1 x_2 x_3 1 (bvadd (_ bv63 6) ?x154)) ?x9560) $x8193 $x1886 $x10196 $x5483 $x7817 $x1271 $x7236 (= ?x3437 (stack_s x_0 x_1 x_2 x_3 1 (bvadd (_ bv62 6) ?x154))) (= ?x8612 (stack_s x_0 x_1 x_2 x_3 1 (bvadd (_ bv63 6) ?x154))) $x528 $x564 $x5595 $x9460 $x11245 (= (stack_s x_0 x_1 x_2 x_3 3 (bvadd (_ bv63 6) ?x275)) ?x1659) (= (stack_s x_0 x_1 x_2 x_3 3 ?x10940) ?x1659) $x10268 (= (stack_s x_0 x_1 x_2 x_3 3 ?x9995) ?x8559) (= (stack_s x_0 x_1 x_2 x_3 3 ?x5834) ?x8612) (= (stack_s x_0 x_1 x_2 x_3 3 ?x5211) ?x3437) $x2081 $x7666 $x10150 $x11167 (= $x292 (or $x247 $x6537 (not (bvsle (_ bv0 6) ?x10940)))) (= ?x9537 (stack_s x_0 x_1 x_2 x_3 3 (bvadd (_ bv62 6) ?x275))) (= ?x9716 (stack_s x_0 x_1 x_2 x_3 3 (bvadd (_ bv63 6) ?x275))) $x10140 $x4885 $x3583 $x4815 $x1015 (= ?x10576 ?x305) (= (stack_s x_0 x_1 x_2 x_3 5 ?x7694) ?x305) $x10810 (= (stack_s x_0 x_1 x_2 x_3 5 ?x10694) ?x10607) (= (stack_s x_0 x_1 x_2 x_3 5 ?x9107) ?x9716) (= (stack_s x_0 x_1 x_2 x_3 5 ?x7978) ?x9537) $x3051 (= ?x4319 (bvadd (_ bv1 6) ?x4305)) $x11823 $x3115 (= $x11317 $x5561) $x4233 $x3061 $x2613 $x2469 $x7791 $x11662 $x10480 $x8439 $x3387 $x8750 $x2995 $x7958 $x9018 $x7135 $x232 $x3553 $x8773 (= ?x7578 ?x2485) (= (stack_t x_0 x_1 x_2 x_3 2 ?x4989) ?x2485) $x4346 $x9819 $x10608 $x753 $x5193 $x4413 $x6843 (= $x5252 (or (not (bvsle (_ bv0 6) ?x4989)) $x3508 $x11639)) (= ?x8450 ?x9005) (= (stack_t x_0 x_1 x_2 x_3 3 ?x4673) ?x9005) $x10787 $x1787 $x1024 $x988 $x10750 $x738 $x3728 $x1371 (= ?x2945 (stack_t x_0 x_1 x_2 x_3 3 (bvadd (_ bv60 6) ?x6438))) (= (stack_t x_0 x_1 x_2 x_3 4 (bvadd (_ bv60 6) ?x1098)) ?x8450) (= ?x11681 ?x1233) $x5890 $x11159 $x8206 $x2983 $x1027 $x7110 $x73 $x255 $x58 $x10092 $x697 $x4631))))))))))))))))))))))))))))))))))))))))))))))))))))))))))))))))))))))))))))))))))))))))))))))))))))))))))))))))))))))))))))))))))))))))))))))))))))))))))))))))))))))))))))))
 )
(check-sat)
(get-proof)
